cvc5/regex-009-reverse-multiply-translate_hard.smt2
(set-info :smt-lib-version 2.6)
(set-logic QF_SLIA)
(set-info :source |
Generated by: Dmitry Blotsky1, Federico Mora, Murphy Berzish, Yunhui Zheng, Ifaz Kabir, Vijay Ganesh, Zhengyang Lu
Generated on: 2018-01-24
Generator: StringFuzz
Application: Evaluate string solvers
Target solver: Z3str3, CVC4, Z3str2, Norn
Publications: Blotsky, D., Mora, F., Berzish, M., Zheng, Y., Kabir, I., & Ganesh, V. (2018). Stringfuzz: A fuzzer for string solvers. In CAV 2018.
Description: transformed by StringFuzz, a modular string and regex fuzzer, from an industrial benchmark
|)
(set-info :license "https://creativecommons.org/licenses/by/4.0/")
(set-info :category "random")
(set-info :status unknown)

(declare-const x String)
(declare-const y String)
(declare-const num_0_6442 Int)
(assert (str.in_re x (re.* (str.to_re "vvVVLLww"))))
(assert (str.in_re x (re.* (str.to_re "vvVVLLwwvvVVLLww"))))
(assert (> (str.len x) 40))
(assert (< (str.len x) 50))
(assert (= (str.split_rest y "__" 1) "97w5q"))
(assert (and (>= (str.num_splits y "__") 2) (<= (str.num_splits y "__") 4)))
(assert (= (str.split_at x "#" 1) y))
(assert (= (str.num_splits x "#") num_0_6442))
(assert (>= num_0_6442 2))
(check-sat)

(get-model)
