cvc5/regex-009-reverse-multiply-translate_hard.txt
(define-fun x () String "vvVVLLwwvvVVLLwwvvVVLLwwvvVVLLwwvvVVLLwwvvVVLLww")
(define-fun y () String "A")
(define-fun num_0_6442 () Int 2)